NAME: instance_2091
TYPE: TSP
DIMENSION: 20
EDGE_WEIGHT_TYPE: EUC_2D
NODE_COORD_SECTION
0 24.23 5.51
1 67.30 80.86
2 17.43 21.65
3 31.67 51.08
4 33.69 26.49
5 41.50 0.81
6 62.97 80.09
7 28.99 37.02
8 65.52 43.12
9 52.58 43.24
10 67.14 69.74
11 20.79 59.01
12 35.90 47.29
13 51.40 61.46
14 0.28 62.86
15 7.74 68.62
16 86.78 79.69
17 60.40 11.89
18 43.39 85.47
19 42.45 20.96
EOF
